p cnf 496
-10 -185
-11 -102
-12 -104
-13 -106
-14 -108
-15 -110
-16 -112
-17 -114
-18 -116
-19 -118
-20 -121
-21 -123
-22 -125
-23 -127
-24 -129
-25 -131
-26 -133
-27 -135
-28 -137
-29 -186
-30 -187
-31 -29
-31 -30
29 30 31
-32 1
-32 -2
-1 2 32
-33 -1
-33 2
1 -2 33
-34 -32
-34 -33
32 33 34
-35 1
-35 2
-1 -2 35
-36 -3
-36 -34
3 34 36
-37 3
-37 34
-3 -34 37
-38 -36
-38 -37
36 37 38
-39 3
-39 -34
-3 34 39
-40 -35
-40 -39
35 39 40
-41 -4
-41 -38
4 38 41
-42 4
-42 38
-4 -38 42
-43 -41
-43 -42
41 42 43
-44 4
-44 -38
-4 38 44
-45 40
-45 -44
-40 44 45
-46 -5
-46 -43
5 43 46
-47 5
-47 43
-5 -43 47
-48 -46
-48 -47
46 47 48
-49 5
-49 -43
-5 43 49
-50 45
-50 -49
-45 49 50
-51 -6
-51 -48
6 48 51
-52 6
-52 48
-6 -48 52
-53 -51
-53 -52
51 52 53
-54 6
-54 -48
-6 48 54
-55 50
-55 -54
-50 54 55
-56 -7
-56 -53
7 53 56
-57 7
-57 53
-7 -53 57
-58 -56
-58 -57
56 57 58
-59 7
-59 -53
-7 53 59
-60 55
-60 -59
-55 59 60
-61 -8
-61 -58
8 58 61
-62 8
-62 58
-8 -58 62
-63 -61
-63 -62
61 62 63
-64 8
-64 -58
-8 58 64
-65 60
-65 -64
-60 64 65
-66 -9
-66 -63
9 63 66
-67 9
-67 63
-9 -63 67
-68 -66
-68 -67
66 67 68
-69 9
-69 -63
-9 63 69
-70 65
-70 -69
-65 69 70
-71 -68
-71 70
68 -70 71
-72 -11
-72 -20
11 20 72
-73 1
-73 -72
-1 72 73
-74 -12
-74 -21
12 21 74
-75 2
-75 -74
-2 74 75
-76 -13
-76 -22
13 22 76
-77 3
-77 -76
-3 76 77
-78 -14
-78 -23
14 23 78
-79 4
-79 -78
-4 78 79
-80 -15
-80 -24
15 24 80
-81 5
-81 -80
-5 80 81
-82 -16
-82 -25
16 25 82
-83 6
-83 -82
-6 82 83
-84 -17
-84 -26
17 26 84
-85 7
-85 -84
-7 84 85
-86 -18
-86 -27
18 27 86
-87 8
-87 -86
-8 86 87
-88 -19
-88 -28
19 28 88
-89 9
-89 -88
-9 88 89
-90 31
-90 71
-31 -71 90
-91 -73
-91 -75
73 75 91
-92 -77
-92 -79
77 79 92
-93 -81
-93 -83
81 83 93
-94 -85
-94 -87
85 87 94
-95 90
-95 91
-90 -91 95
-96 92
-96 93
-92 -93 96
-97 -89
-97 94
89 -94 97
-98 95
-98 96
-95 -96 98
-99 97
-99 98
-97 -98 99
-100 -10
-100 99
10 -99 100
-101 1
-101 100
-1 -100 101
-102 -11
-102 -101
11 101 102
-103 2
-103 100
-2 -100 103
-104 -12
-104 -103
12 103 104
-105 3
-105 100
-3 -100 105
-106 -13
-106 -105
13 105 106
-107 4
-107 100
-4 -100 107
-108 -14
-108 -107
14 107 108
-109 5
-109 100
-5 -100 109
-110 -15
-110 -109
15 109 110
-111 6
-111 100
-6 -100 111
-112 -16
-112 -111
16 111 112
-113 7
-113 100
-7 -100 113
-114 -17
-114 -113
17 113 114
-115 8
-115 100
-8 -100 115
-116 -18
-116 -115
18 115 116
-117 9
-117 100
-9 -100 117
-118 -19
-118 -117
19 117 118
-119 10
-119 99
-10 -99 119
-120 1
-120 119
-1 -119 120
-121 -20
-121 -120
20 120 121
-122 2
-122 119
-2 -119 122
-123 -21
-123 -122
21 122 123
-124 3
-124 119
-3 -119 124
-125 -22
-125 -124
22 124 125
-126 4
-126 119
-4 -119 126
-127 -23
-127 -126
23 126 127
-128 5
-128 119
-5 -119 128
-129 -24
-129 -128
24 128 129
-130 6
-130 119
-6 -119 130
-131 -25
-131 -130
25 130 131
-132 7
-132 119
-7 -119 132
-133 -26
-133 -132
26 132 133
-134 8
-134 119
-8 -119 134
-135 -27
-135 -134
27 134 135
-136 9
-136 119
-9 -119 136
-137 -28
-137 -136
28 136 137
-138 -102
-138 -110
102 110 138
-139 -118
-139 138
118 -138 139
-140 -106
-140 -110
106 110 140
-141 -114
-141 140
114 -140 141
-142 -102
-142 -104
102 104 142
-143 -106
-143 142
106 -142 143
-144 -108
-144 -110
108 110 144
-145 -112
-145 144
112 -144 145
-146 -114
-146 -116
114 116 146
-147 -118
-147 146
118 -146 147
-148 -102
-148 -108
102 108 148
-149 -114
-149 148
114 -148 149
-150 -104
-150 -110
104 110 150
-151 -116
-151 150
116 -150 151
-152 -106
-152 -112
106 112 152
-153 -118
-153 152
118 -152 153
-154 -139
-154 -141
139 141 154
-155 -143
-155 -145
143 145 155
-156 -147
-156 -149
147 149 156
-157 -151
-157 -153
151 153 157
-158 154
-158 155
-154 -155 158
-159 156
-159 157
-156 -157 159
-160 158
-160 159
-158 -159 160
-161 -121
-161 -129
121 129 161
-162 -137
-162 161
137 -161 162
-163 -125
-163 -129
125 129 163
-164 -133
-164 163
133 -163 164
-165 -121
-165 -123
121 123 165
-166 -125
-166 165
125 -165 166
-167 -127
-167 -129
127 129 167
-168 -131
-168 167
131 -167 168
-169 -133
-169 -135
133 135 169
-170 -137
-170 169
137 -169 170
-171 -121
-171 -127
121 127 171
-172 -133
-172 171
133 -171 172
-173 -123
-173 -129
123 129 173
-174 -135
-174 173
135 -173 174
-175 -125
-175 -131
125 131 175
-176 -137
-176 175
137 -175 176
-177 -162
-177 -164
162 164 177
-178 -166
-178 -168
166 168 178
-179 -170
-179 -172
170 172 179
-180 -174
-180 -176
174 176 180
-181 177
-181 178
-177 -178 181
-182 179
-182 180
-179 -180 182
-183 181
-183 182
-181 -182 183
-184 10
-184 -99
-10 99 184
-185 -100
-185 -184
100 184 185
-186 -29
-186 160
29 -160 186
-187 -30
-187 183
30 -183 187
-188 29
-188 30
-29 -30 188
188
